TCS_Benchmarks/redos_fix/corpus2_output_distinct_4720_4719_64_0.smt2
(set-logic QF_S)
(declare-const x String)
(assert (str.in.re x (re.inter (re.* (re.union (re.range "\u{00}" "\u{09}") (re.range "\u{0b}" "\u{0c}") (re.range "\u{0e}" "\u{84}") (re.range "\u{86}" "\u{ff}")) )  (re.++ (re.* (re.union (re.range "\u{00}" "\u{09}") (re.range "\u{0b}" "\u{0c}") (re.range "\u{0e}" "\u{84}") (re.range "\u{86}" "\u{ff}")) ) (re.++  (re.++  (re.++  (re.++  (re.union  (str.to.re "\u{2f}") (re.range "\u{30}" "\u{39}")) (re.++  (re.union  (str.to.re "\u{2f}") (re.range "\u{30}" "\u{39}")) (re.++  (re.union  (str.to.re "\u{2f}") (re.range "\u{30}" "\u{39}")) (re.++  (re.union  (str.to.re "\u{2f}") (re.range "\u{30}" "\u{39}")) (re.++  (re.union  (str.to.re "\u{2f}") (re.range "\u{30}" "\u{39}")) (re.++  (re.union  (str.to.re "\u{2f}") (re.range "\u{30}" "\u{39}")) (re.++  (re.union  (str.to.re "\u{2f}") (re.range "\u{30}" "\u{39}"))  (re.union  (str.to.re "\u{2f}") (re.range "\u{30}" "\u{39}"))))))))) (re.++ (re.+ (re.union (re.range "\u{09}" "\u{0d}") (re.range "\u{20}" "\u{20}") (re.range "\u{85}" "\u{85}") (re.range "\u{a0}" "\u{a0}")) )  (re.++  (re.union  (str.to.re "\u{3a}") (re.range "\u{30}" "\u{39}")) (re.++  (re.union  (str.to.re "\u{3a}") (re.range "\u{30}" "\u{39}")) (re.++  (re.union  (str.to.re "\u{3a}") (re.range "\u{30}" "\u{39}")) (re.++  (re.union  (str.to.re "\u{3a}") (re.range "\u{30}" "\u{39}")) (re.++  (re.union  (str.to.re "\u{3a}") (re.range "\u{30}" "\u{39}")) (re.++  (re.union  (str.to.re "\u{3a}") (re.range "\u{30}" "\u{39}")) (re.++  (re.union  (str.to.re "\u{3a}") (re.range "\u{30}" "\u{39}"))  (re.union  (str.to.re "\u{3a}") (re.range "\u{30}" "\u{39}"))))))))))) (re.++  (str.to.re "\u{3a}") (re.++ (re.+ (re.union (re.range "\u{09}" "\u{0d}") (re.range "\u{20}" "\u{20}") (re.range "\u{85}" "\u{85}") (re.range "\u{a0}" "\u{a0}")) ) (re.++ (re.+ (re.union (re.range "\u{00}" "\u{09}") (re.range "\u{0b}" "\u{0c}") (re.range "\u{0e}" "\u{84}") (re.range "\u{86}" "\u{ff}")) ) (re.++ (re.union (re.range "\u{09}" "\u{0d}") (re.range "\u{20}" "\u{20}") (re.range "\u{85}" "\u{85}") (re.range "\u{a0}" "\u{a0}")) (re.++  (str.to.re "\u{63}") (re.++  (str.to.re "\u{68}") (re.++  (str.to.re "\u{61}") (re.++  (str.to.re "\u{6e}") (re.++  (str.to.re "\u{67}") (re.++  (str.to.re "\u{65}") (re.++  (str.to.re "\u{64}") (re.++ (re.union (re.range "\u{09}" "\u{0d}") (re.range "\u{20}" "\u{20}") (re.range "\u{85}" "\u{85}") (re.range "\u{a0}" "\u{a0}")) (re.++  (str.to.re "\u{74}") (re.++  (str.to.re "\u{68}") (re.++  (str.to.re "\u{65}") (re.++ (re.union (re.range "\u{09}" "\u{0d}") (re.range "\u{20}" "\u{20}") (re.range "\u{85}" "\u{85}") (re.range "\u{a0}" "\u{a0}")) (re.++  (str.to.re "\u{73}") (re.++  (str.to.re "\u{75}") (re.++  (str.to.re "\u{62}") (re.++  (str.to.re "\u{6a}") (re.++  (str.to.re "\u{65}") (re.++  (str.to.re "\u{63}") (re.++  (str.to.re "\u{74}") (re.++ (re.union (re.range "\u{09}" "\u{0d}") (re.range "\u{20}" "\u{20}") (re.range "\u{85}" "\u{85}") (re.range "\u{a0}" "\u{a0}")) (re.++  (str.to.re "\u{74}") (re.++  (str.to.re "\u{6f}") (re.union (re.range "\u{09}" "\u{0d}") (re.range "\u{20}" "\u{20}") (re.range "\u{85}" "\u{85}") (re.range "\u{a0}" "\u{a0}"))))))))))))))))))))))))))))) (re.* (re.union (re.range "\u{00}" "\u{09}") (re.range "\u{0b}" "\u{0c}") (re.range "\u{0e}" "\u{84}") (re.range "\u{86}" "\u{ff}")) ))) (re.* (re.union (re.range "\u{00}" "\u{09}") (re.range "\u{0b}" "\u{0c}") (re.range "\u{0e}" "\u{84}") (re.range "\u{86}" "\u{ff}")) ) )))
(check-sat)
(get-model)