TCS_Benchmarks/redos_fix/corpus2_output_distinct_4720_4719_64_0.txt
.*
(.*)(([\/0-9]{8}\s+[:0-9]{8}):\s+(.+)\schanged\sthe\ssubject\sto\s)(.*)
.*